400, 31999400
160401, 944
160402, 136
160403, 860
160404, 325
160405, 643
160406, 264
160407, 672
160408, 67
160409, 714
160410, 659
160411, 478
160412, 453
160413, 865
160414, 831
160415, 402
160416, 396
160417, 446
160418, 687
160419, 758
160420, 241
160421, 66
160422, 789
160423, 785
160424, 104
160425, 504
160426, 158
160427, 280
160428, 143
160429, 941
160430, 793
160431, 512
160432, 951
160433, 446
160434, 919
160435, 649
160436, 154
160437, 156
160438, 892
160439, 676
160440, 131
160441, 802
160442, 756
160443, 774
160444, 600
160445, 685
160446, 150
160447, 74
160448, 995
160449, 643
160450, 20
160451, 778
160452, 596
160453, 324
160454, 576
160455, 303
160456, 440
160457, 796
160458, 337
160459, 131
160460, 253
160461, 150
160462, 443
160463, 446
160464, 499
160465, 794
160466, 386
160467, 582
160468, 531
160469, 39
160470, 407
160471, 588
160472, 835
160473, 97
160474, 536
160475, 493
160476, 808
160477, 100
160478, 948
160479, 663
160480, 187
160481, 406
160482, 692
160483, 759
160484, 764
160485, 464
160486, 419
160487, 673
160488, 209
160489, 741
160490, 878
160491, 279
160492, 927
160493, 506
160494, 269
160495, 648
160496, 863
160497, 276
160498, 159
160499, 803
160500, 610
160501, 100
160502, 385
160503, 649
160504, 429
160505, 829
160506, 496
160507, 205
160508, 886
160509, 548
160510, 897
160511, 879
160512, 780
160513, 263
160514, 55
160515, 436
160516, 434
160517, 470
160518, 773
160519, 255
160520, 68
160521, 429
160522, 352
160523, 547
160524, 71
160525, 871
160526, 918
160527, 214
160528, 237
160529, 796
160530, 560
160531, 624
160532, 966
160533, 995
160534, 819
160535, 545
160536, 552
160537, 8
160538, 554
160539, 110
160540, 712
160541, 751
160542, 902
160543, 315
160544, 278
160545, 22
160546, 294
160547, 841
160548, 900
160549, 207
160550, 534
160551, 970
160552, 455
160553, 131
160554, 132
160555, 496
160556, 788
160557, 55
160558, 837
160559, 449
160560, 732
160561, 282
160562, 428
160563, 269
160564, 984
160565, 964
160566, 419
160567, 845
160568, 444
160569, 201
160570, 192
160571, 974
160572, 288
160573, 116
160574, 545
160575, 772
160576, 177
160577, 283
160578, 999
160579, 79
160580, 76
160581, 145
160582, 686
160583, 480
160584, 724
160585, 838
160586, 883
160587, 108
160588, 182
160589, 209
160590, 532
160591, 943
160592, 780
160593, 950
160594, 803
160595, 458
160596, 374
160597, 904
160598, 667
160599, 974
160600, 305
160601, 584
160602, 161
160603, 574
160604, 452
160605, 187
160606, 395
160607, 736
160608, 582
160609, 567
160610, 604
160611, 140
160612, 113
160613, 245
160614, 678
160615, 331
160616, 546
160617, 768
160618, 653
160619, 96
160620, 533
160621, 957
160622, 434
160623, 162
160624, 317
160625, 649
160626, 814
160627, 736
160628, 849
160629, 517
160630, 586
160631, 467
160632, 976
160633, 605
160634, 149
160635, 863
160636, 110
160637, 580
160638, 37
160639, 593
160640, 788
160641, 704
160642, 188
160643, 801
160644, 587
160645, 620
160646, 428
160647, 306
160648, 400
160649, 425
160650, 771
160651, 469
160652, 34
160653, 563
160654, 224
160655, 457
160656, 63
160657, 538
160658, 291
160659, 709
160660, 466
160661, 677
160662, 672
160663, 772
160664, 823
160665, 504
160666, 132
160667, 639
160668, 125
160669, 663
160670, 198
160671, 630
160672, 130
160673, 328
160674, 735
160675, 375
160676, 130
160677, 589
160678, 586
160679, 980
160680, 569
160681, 39
160682, 116
160683, 66
160684, 379
160685, 235
160686, 228
160687, 236
160688, 474
160689, 256
160690, 427
160691, 19
160692, 64
160693, 287
160694, 197
160695, 328
160696, 248
160697, 41
160698, 398
160699, 488
160700, 721
160701, 556
160702, 606
160703, 367
160704, 874
160705, 550
160706, 357
160707, 317
160708, 199
160709, 167
160710, 414
160711, 372
160712, 794
160713, 347
160714, 191
160715, 486
160716, 386
160717, 525
160718, 271
160719, 691
160720, 903
160721, 541
160722, 919
160723, 345
160724, 491
160725, 227
160726, 201
160727, 898
160728, 690
160729, 9
160730, 76
160731, 921
160732, 850
160733, 395
160734, 941
160735, 388
160736, 51
160737, 626
160738, 838
160739, 507
160740, 936
160741, 892
160742, 522
160743, 255
160744, 100
160745, 206
160746, 166
160747, 563
160748, 813
160749, 346
160750, 898
160751, 438
160752, 20
160753, 752
160754, 446
160755, 903
160756, 275
160757, 337
160758, 29
160759, 463
160760, 365
160761, 782
160762, 740
160763, 898
160764, 416
160765, 509
160766, 459
160767, 901
160768, 821
160769, 700
160770, 626
160771, 441
160772, 359
160773, 539
160774, 869
160775, 638
160776, 279
160777, 302
160778, 528
160779, 464
160780, 638
160781, 657
160782, 692
160783, 533
160784, 803
160785, 129
160786, 639
160787, 981
160788, 856
160789, 537
160790, 551
160791, 32
160792, 801
160793, 138
160794, 712
160795, 795
160796, 876
160797, 745
160798, 640
160799, 339
160800, 81
